============================[ Problem Statistics ]=============================|                                                                             ||  Number of variables:          4242                                         ||  Number of clauses:           10097                                         ||  Parse time:                   0.49 s                                       ||                                                                             |============================[ Search Statistics ]==============================| Conflicts |          ORIGINAL         |          LEARNT          | Progress ||           |    Vars  Clauses Literals |    Limit  Clauses Lit/Cl |          |===============================================================================|       100 |    1591     6302   773883 |     2310      100     53 | 62.501 % ||       250 |    1591     6302   773883 |     2541      250     75 | 62.495 % |===============================================================================restarts              : 3conflicts             : 273            (373 /sec)decisions             : 538            (0.00 % random) (735 /sec)propagations          : 11798          (16117 /sec)conflict literals     : 21083          (94.82 % deleted)CPU time              : 0.732 sSATISFIABLE